data/CVRPLIB/Vrp-Set-XML100/instances/XML100_3111_05.vrp
NAME : XML100_3111_05
COMMENT : Generated by Queiroga, Sadykov, Uchoa, and Vidal (2021)
TYPE : CVRP
DIMENSION : 101
EDGE_WEIGHT_TYPE : EUC_2D
CAPACITY : 3
NODE_COORD_SECTION
1    0    0   
2    113  43  
3    178  210 
4    13   319 
5    933  163 
6    390  154 
7    753  323 
8    454  184 
9    83   785 
10   106  376 
11   707  969 
12   762  747 
13   469  75  
14   843  408 
15   427  847 
16   152  234 
17   29   400 
18   149  435 
19   911  990 
20   34   138 
21   202  181 
22   302  192 
23   242  756 
24   736  736 
25   22   141 
26   528  609 
27   396  978 
28   368  475 
29   849  556 
30   696  758 
31   565  519 
32   330  196 
33   886  778 
34   769  784 
35   194  907 
36   664  844 
37   625  463 
38   217  186 
39   984  278 
40   299  985 
41   331  550 
42   488  502 
43   683  471 
44   612  345 
45   371  662 
46   819  567 
47   184  501 
48   714  393 
49   825  496 
50   763  550 
51   268  31  
52   418  433 
53   698  474 
54   775  973 
55   128  946 
56   231  208 
57   305  750 
58   996  902 
59   314  577 
60   750  563 
61   853  130 
62   814  257 
63   855  26  
64   733  547 
65   989  463 
66   942  509 
67   983  633 
68   754  512 
69   939  260 
70   734  302 
71   822  172 
72   529  706 
73   726  338 
74   204  401 
75   436  687 
76   206  802 
77   680  69  
78   561  79  
79   574  748 
80   923  662 
81   194  609 
82   733  580 
83   968  290 
84   25   984 
85   509  959 
86   253  215 
87   134  951 
88   638  894 
89   40   678 
90   234  796 
91   913  297 
92   985  420 
93   499  694 
94   874  832 
95   453  732 
96   604  298 
97   542  125 
98   409  463 
99   819  320 
100  596  132 
101  234  909 
DEMAND_SECTION
1    0   
2    1   
3    1   
4    1   
5    1   
6    1   
7    1   
8    1   
9    1   
10   1   
11   1   
12   1   
13   1   
14   1   
15   1   
16   1   
17   1   
18   1   
19   1   
20   1   
21   1   
22   1   
23   1   
24   1   
25   1   
26   1   
27   1   
28   1   
29   1   
30   1   
31   1   
32   1   
33   1   
34   1   
35   1   
36   1   
37   1   
38   1   
39   1   
40   1   
41   1   
42   1   
43   1   
44   1   
45   1   
46   1   
47   1   
48   1   
49   1   
50   1   
51   1   
52   1   
53   1   
54   1   
55   1   
56   1   
57   1   
58   1   
59   1   
60   1   
61   1   
62   1   
63   1   
64   1   
65   1   
66   1   
67   1   
68   1   
69   1   
70   1   
71   1   
72   1   
73   1   
74   1   
75   1   
76   1   
77   1   
78   1   
79   1   
80   1   
81   1   
82   1   
83   1   
84   1   
85   1   
86   1   
87   1   
88   1   
89   1   
90   1   
91   1   
92   1   
93   1   
94   1   
95   1   
96   1   
97   1   
98   1   
99   1   
100  1   
101  1   
DEPOT_SECTION
1
-1
EOF
