data/CVRPLIB/Vrp-Set-XML100/solutions/XML100_3111_05.sol
Route #1: 36 42 52
Route #2: 22 89 56
Route #3: 32 93 33
Route #4: 88 8 75
Route #5: 63 59 81
Route #6: 80 58 40
Route #7: 20 2 15
Route #8: 34 100 39
Route #9: 19 24
Route #10: 14 84 26
Route #11: 98 13 48
Route #12: 12 96 7
Route #13: 74 94 44
Route #14: 41 25 30
Route #15: 83 86 54
Route #16: 99 76 77
Route #17: 95 47 43
Route #18: 92 78 71
Route #19: 73 46 17
Route #20: 29 11 23
Route #21: 9 16 3
Route #22: 72 6 69
Route #23: 62 60 70
Route #24: 50 1
Route #25: 4 68 61
Route #26: 49 45 67
Route #27: 28 66 79
Route #28: 38 82 90
Route #29: 27 97 51
Route #30: 53 18 57
Route #31: 65 64 91
Route #32: 37 85 55
Route #33: 35 10 87
Route #34: 5 31 21
Cost 56757
